p ds 55 5
1 3
1 4
1 6
1 9
1 10
1 11
1 13
1 14
1 15
1 16
1 18
1 23
1 25
1 30
1 31
1 32
1 33
1 40
1 41
1 42
1 43
1 44
1 46
1 47
1 49
1 50
1 53
1 55
2 4
2 5
2 8
2 15
2 16
2 17
2 19
2 20
2 21
2 22
2 27
2 29
2 30
2 32
2 34
2 35
2 36
2 37
2 38
2 39
2 40
2 42
2 45
2 48
2 49
2 50
2 51
2 52
2 53
2 54
2 55
3 5
3 9
3 10
3 11
3 12
3 16
3 20
3 22
3 23
3 29
3 30
3 31
3 32
3 33
3 34
3 35
3 39
3 41
3 45
3 52
4 5
4 6
4 11
4 20
4 23
4 24
4 27
4 28
4 29
4 33
4 36
4 37
4 39
4 40
4 41
4 42
4 43
4 44
4 45
4 46
4 47
4 50
4 51
4 52
4 53
5 6
5 8
5 12
5 14
5 17
5 20
5 21
5 25
5 28
5 35
5 37
5 38
5 44
5 45
5 47
5 50
5 52
5 53
6 8
6 10
6 11
6 13
6 15
6 20
6 21
6 24
6 25
6 27
6 28
6 30
6 31
6 34
6 37
6 38
6 40
6 44
6 46
6 47
6 51
7 9
7 12
7 13
7 15
7 17
7 18
7 19
7 22
7 23
7 24
7 26
7 27
7 29
7 30
7 32
7 33
7 34
7 35
7 37
7 40
7 41
7 45
7 46
7 48
7 49
7 51
8 9
8 10
8 22
8 25
8 27
8 29
8 30
8 31
8 33
8 34
8 35
8 36
8 37
8 38
8 40
8 41
8 42
8 43
8 44
8 45
8 47
8 53
8 54
8 55
9 10
9 11
9 13
9 14
9 16
9 20
9 21
9 23
9 26
9 27
9 29
9 30
9 33
9 34
9 35
9 37
9 39
9 42
9 44
9 45
9 46
9 50
9 52
9 53
9 55
10 13
10 14
10 15
10 16
10 17
10 19
10 20
10 24
10 27
10 29
10 30
10 31
10 32
10 34
10 36
10 37
10 39
10 40
10 47
10 48
10 49
10 50
10 51
10 53
10 55
11 15
11 16
11 18
11 21
11 22
11 26
11 28
11 29
11 30
11 32
11 33
11 34
11 35
11 37
11 38
11 40
11 41
11 45
11 47
11 48
11 49
11 52
11 54
12 13
12 14
12 17
12 18
12 19
12 22
12 23
12 24
12 25
12 26
12 27
12 29
12 33
12 35
12 38
12 40
12 42
12 46
12 50
12 51
12 52
13 14
13 16
13 17
13 19
13 22
13 23
13 25
13 27
13 30
13 33
13 34
13 35
13 37
13 40
13 41
13 44
13 45
13 47
13 48
13 50
13 51
13 53
13 54
13 55
14 17
14 19
14 23
14 24
14 27
14 28
14 29
14 31
14 33
14 34
14 37
14 38
14 40
14 43
14 44
14 45
14 47
14 48
14 49
14 50
14 53
14 54
14 55
15 18
15 19
15 21
15 22
15 23
15 24
15 25
15 27
15 28
15 30
15 32
15 37
15 38
15 40
15 41
15 44
15 47
15 48
15 50
15 51
15 52
15 55
16 17
16 22
16 23
16 24
16 26
16 27
16 28
16 29
16 30
16 32
16 35
16 37
16 39
16 42
16 44
16 45
16 46
16 47
16 48
16 51
16 55
17 18
17 19
17 21
17 22
17 26
17 28
17 32
17 33
17 36
17 40
17 41
17 42
17 43
17 44
17 51
17 52
18 19
18 20
18 23
18 25
18 27
18 31
18 34
18 35
18 37
18 39
18 42
18 43
18 44
18 45
18 47
18 49
18 50
18 51
18 53
18 55
19 23
19 24
19 26
19 30
19 31
19 32
19 35
19 36
19 39
19 41
19 42
19 44
19 46
19 49
19 50
19 53
19 55
20 21
20 24
20 28
20 30
20 33
20 40
20 41
20 42
20 43
20 47
20 48
20 49
20 50
20 51
20 53
20 54
20 55
21 22
21 26
21 27
21 28
21 29
21 31
21 32
21 35
21 39
21 43
21 44
21 45
21 46
21 47
21 48
21 49
21 52
21 55
22 23
22 26
22 29
22 32
22 34
22 36
22 39
22 42
22 46
22 47
22 48
22 50
22 51
22 54
23 26
23 33
23 36
23 37
23 38
23 39
23 40
23 44
23 45
23 46
23 50
23 52
23 53
23 55
24 25
24 26
24 27
24 28
24 31
24 32
24 38
24 39
24 42
24 44
24 46
24 47
24 48
24 49
24 52
24 54
25 26
25 28
25 30
25 33
25 34
25 35
25 37
25 38
25 41
25 42
25 43
25 45
25 47
25 50
25 51
25 52
25 55
26 27
26 29
26 30
26 31
26 32
26 34
26 35
26 37
26 38
26 39
26 40
26 42
26 44
26 45
26 47
26 48
26 49
26 50
26 52
26 54
26 55
27 28
27 32
27 33
27 35
27 36
27 37
27 38
27 39
27 40
27 42
27 43
27 45
27 48
27 49
27 50
28 29
28 32
28 33
28 34
28 36
28 41
28 43
28 48
28 50
28 53
29 31
29 33
29 34
29 35
29 36
29 37
29 39
29 42
29 43
29 45
29 47
29 53
29 54
29 55
30 32
30 34
30 35
30 38
30 39
30 40
30 41
30 44
30 46
30 51
30 52
30 53
31 33
31 36
31 42
31 43
31 45
31 46
31 47
31 49
31 50
31 51
31 52
31 54
31 55
32 33
32 34
32 35
32 36
32 37
32 39
32 40
32 41
32 44
32 48
32 49
32 51
32 52
32 53
32 55
33 36
33 41
33 45
33 48
33 50
33 51
33 54
34 35
34 37
34 38
34 39
34 40
34 43
34 47
34 50
34 53
34 55
35 36
35 37
35 39
35 40
35 41
35 43
35 48
35 49
35 50
35 52
35 55
36 37
36 41
36 43
36 44
36 47
36 48
36 50
36 51
36 55
37 43
37 45
37 46
37 48
37 50
37 51
37 52
37 54
37 55
38 39
38 41
38 42
38 43
38 44
38 45
38 46
38 47
38 49
38 51
38 53
38 55
39 40
39 42
39 44
39 46
39 47
39 48
39 49
39 51
39 52
39 55
40 47
40 48
40 50
40 51
40 54
40 55
41 44
41 47
41 48
41 50
41 51
41 53
41 55
42 43
42 45
42 47
42 48
42 49
42 50
42 51
42 53
42 55
43 44
43 45
43 47
43 48
43 50
43 51
43 52
43 54
44 46
44 47
44 48
44 49
44 50
45 47
45 49
45 50
45 51
45 53
45 54
45 55
46 47
46 49
46 51
47 49
47 50
47 54
47 55
48 55
49 50
49 54
49 55
50 53
50 54
50 55
51 53
51 54
51 55
52 54
53 55
54 55
